p cnf 885
-12 -278
-13 -281
-14 -284
-15 -287
-16 -290
-17 -293
-18 -296
-19 -299
-20 -302
-21 -305
-22 -308
-23 309
-24 310
-25 311
-26 312
-27 313
-28 314
-29 315
-30 316
-31 317
-32 -13
-32 -14
13 14 32
-33 -15
-33 -16
15 16 33
-34 -17
-34 -18
17 18 34
-35 -19
-35 -20
19 20 35
-36 -21
-36 -22
21 22 36
-37 -23
-37 -24
23 24 37
-38 -25
-38 -26
25 26 38
-39 -27
-39 -28
27 28 39
-40 -29
-40 -30
29 30 40
-41 32
-41 33
-32 -33 41
-42 34
-42 35
-34 -35 42
-43 36
-43 37
-36 -37 43
-44 38
-44 39
-38 -39 44
-45 -31
-45 40
31 -40 45
-46 41
-46 42
-41 -42 46
-47 43
-47 44
-43 -44 47
-48 46
-48 47
-46 -47 48
-49 45
-49 48
-45 -48 49
-50 -12
-50 13
12 -13 50
-51 12
-51 -13
-12 13 51
-52 -50
-52 -51
50 51 52
-53 12
-53 13
-12 -13 53
-54 -12
-54 -52
12 52 54
-55 12
-55 52
-12 -52 55
-56 -54
-56 -55
54 55 56
-57 12
-57 -52
-12 52 57
-58 -53
-58 -57
53 57 58
-59 -13
-59 14
13 -14 59
-60 13
-60 -14
-13 14 60
-61 -59
-61 -60
59 60 61
-62 13
-62 14
-13 -14 62
-63 58
-63 -61
-58 61 63
-64 -58
-64 61
58 -61 64
-65 -63
-65 -64
63 64 65
-66 -58
-66 -61
58 61 66
-67 -62
-67 -66
62 66 67
-68 -14
-68 15
14 -15 68
-69 14
-69 -15
-14 15 69
-70 -68
-70 -69
68 69 70
-71 14
-71 15
-14 -15 71
-72 67
-72 -70
-67 70 72
-73 -67
-73 70
67 -70 73
-74 -72
-74 -73
72 73 74
-75 -67
-75 -70
67 70 75
-76 -71
-76 -75
71 75 76
-77 -15
-77 16
15 -16 77
-78 15
-78 -16
-15 16 78
-79 -77
-79 -78
77 78 79
-80 15
-80 16
-15 -16 80
-81 76
-81 -79
-76 79 81
-82 -76
-82 79
76 -79 82
-83 -81
-83 -82
81 82 83
-84 -76
-84 -79
76 79 84
-85 -80
-85 -84
80 84 85
-86 -16
-86 17
16 -17 86
-87 16
-87 -17
-16 17 87
-88 -86
-88 -87
86 87 88
-89 16
-89 17
-16 -17 89
-90 85
-90 -88
-85 88 90
-91 -85
-91 88
85 -88 91
-92 -90
-92 -91
90 91 92
-93 -85
-93 -88
85 88 93
-94 -89
-94 -93
89 93 94
-95 -17
-95 18
17 -18 95
-96 17
-96 -18
-17 18 96
-97 -95
-97 -96
95 96 97
-98 17
-98 18
-17 -18 98
-99 94
-99 -97
-94 97 99
-100 -94
-100 97
94 -97 100
-101 -99
-101 -100
99 100 101
-102 -94
-102 -97
94 97 102
-103 -98
-103 -102
98 102 103
-104 -18
-104 19
18 -19 104
-105 18
-105 -19
-18 19 105
-106 -104
-106 -105
104 105 106
-107 18
-107 19
-18 -19 107
-108 103
-108 -106
-103 106 108
-109 -103
-109 106
103 -106 109
-110 -108
-110 -109
108 109 110
-111 -103
-111 -106
103 106 111
-112 -107
-112 -111
107 111 112
-113 -19
-113 20
19 -20 113
-114 19
-114 -20
-19 20 114
-115 -113
-115 -114
113 114 115
-116 19
-116 20
-19 -20 116
-117 112
-117 -115
-112 115 117
-118 -112
-118 115
112 -115 118
-119 -117
-119 -118
117 118 119
-120 -112
-120 -115
112 115 120
-121 -116
-121 -120
116 120 121
-122 -20
-122 21
20 -21 122
-123 20
-123 -21
-20 21 123
-124 -122
-124 -123
122 123 124
-125 20
-125 21
-20 -21 125
-126 121
-126 -124
-121 124 126
-127 -121
-127 124
121 -124 127
-128 -126
-128 -127
126 127 128
-129 -121
-129 -124
121 124 129
-130 -125
-130 -129
125 129 130
-131 -21
-131 22
21 -22 131
-132 21
-132 -22
-21 22 132
-133 -131
-133 -132
131 132 133
-134 21
-134 22
-21 -22 134
-135 130
-135 -133
-130 133 135
-136 -130
-136 133
130 -133 136
-137 -135
-137 -136
135 136 137
-138 -130
-138 -133
130 133 138
-139 -134
-139 -138
134 138 139
-140 -22
-140 23
22 -23 140
-141 22
-141 -23
-22 23 141
-142 -140
-142 -141
140 141 142
-143 22
-143 23
-22 -23 143
-144 139
-144 -142
-139 142 144
-145 -139
-145 142
139 -142 145
-146 -144
-146 -145
144 145 146
-147 -139
-147 -142
139 142 147
-148 -143
-148 -147
143 147 148
-149 -23
-149 24
23 -24 149
-150 23
-150 -24
-23 24 150
-151 -149
-151 -150
149 150 151
-152 23
-152 24
-23 -24 152
-153 148
-153 -151
-148 151 153
-154 -148
-154 151
148 -151 154
-155 -153
-155 -154
153 154 155
-156 -148
-156 -151
148 151 156
-157 -152
-157 -156
152 156 157
-158 -24
-158 25
24 -25 158
-159 24
-159 -25
-24 25 159
-160 -158
-160 -159
158 159 160
-161 24
-161 25
-24 -25 161
-162 157
-162 -160
-157 160 162
-163 -157
-163 160
157 -160 163
-164 -162
-164 -163
162 163 164
-165 -157
-165 -160
157 160 165
-166 -161
-166 -165
161 165 166
-167 -25
-167 26
25 -26 167
-168 25
-168 -26
-25 26 168
-169 -167
-169 -168
167 168 169
-170 25
-170 26
-25 -26 170
-171 166
-171 -169
-166 169 171
-172 -166
-172 169
166 -169 172
-173 -171
-173 -172
171 172 173
-174 -166
-174 -169
166 169 174
-175 -170
-175 -174
170 174 175
-176 -26
-176 27
26 -27 176
-177 26
-177 -27
-26 27 177
-178 -176
-178 -177
176 177 178
-179 26
-179 27
-26 -27 179
-180 175
-180 -178
-175 178 180
-181 -175
-181 178
175 -178 181
-182 -180
-182 -181
180 181 182
-183 -175
-183 -178
175 178 183
-184 -179
-184 -183
179 183 184
-185 -27
-185 28
27 -28 185
-186 27
-186 -28
-27 28 186
-187 -185
-187 -186
185 186 187
-188 27
-188 28
-27 -28 188
-189 184
-189 -187
-184 187 189
-190 -184
-190 187
184 -187 190
-191 -189
-191 -190
189 190 191
-192 -184
-192 -187
184 187 192
-193 -188
-193 -192
188 192 193
-194 -28
-194 29
28 -29 194
-195 28
-195 -29
-28 29 195
-196 -194
-196 -195
194 195 196
-197 28
-197 29
-28 -29 197
-198 193
-198 -196
-193 196 198
-199 -193
-199 196
193 -196 199
-200 -198
-200 -199
198 199 200
-201 -193
-201 -196
193 196 201
-202 -197
-202 -201
197 201 202
-203 -29
-203 30
29 -30 203
-204 29
-204 -30
-29 30 204
-205 -203
-205 -204
203 204 205
-206 29
-206 30
-29 -30 206
-207 202
-207 -205
-202 205 207
-208 -202
-208 205
202 -205 208
-209 -207
-209 -208
207 208 209
-210 -202
-210 -205
202 205 210
-211 -206
-211 -210
206 210 211
-212 -30
-212 31
30 -31 212
-213 30
-213 -31
-30 31 213
-214 -212
-214 -213
212 213 214
-215 30
-215 31
-30 -31 215
-216 211
-216 -214
-211 214 216
-217 -211
-217 214
211 -214 217
-218 -216
-218 -217
216 217 218
-219 -211
-219 -214
211 214 219
-220 -215
-220 -219
215 219 220
-221 12
-221 -56
-12 56 221
-222 -12
-222 14
12 -14 222
-223 -221
-223 -222
221 222 223
-224 12
-224 -65
-12 65 224
-225 -12
-225 15
12 -15 225
-226 -224
-226 -225
224 225 226
-227 12
-227 -74
-12 74 227
-228 -12
-228 16
12 -16 228
-229 -227
-229 -228
227 228 229
-230 12
-230 -83
-12 83 230
-231 -12
-231 17
12 -17 231
-232 -230
-232 -231
230 231 232
-233 12
-233 -92
-12 92 233
-234 -12
-234 18
12 -18 234
-235 -233
-235 -234
233 234 235
-236 12
-236 -101
-12 101 236
-237 -12
-237 19
12 -19 237
-238 -236
-238 -237
236 237 238
-239 12
-239 -110
-12 110 239
-240 -12
-240 20
12 -20 240
-241 -239
-241 -240
239 240 241
-242 12
-242 -119
-12 119 242
-243 -12
-243 21
12 -21 243
-244 -242
-244 -243
242 243 244
-245 12
-245 -128
-12 128 245
-246 -12
-246 22
12 -22 246
-247 -245
-247 -246
245 246 247
-248 12
-248 -137
-12 137 248
-249 -12
-249 23
12 -23 249
-250 -248
-250 -249
248 249 250
-251 12
-251 -146
-12 146 251
-252 -12
-252 24
12 -24 252
-253 -251
-253 -252
251 252 253
-254 12
-254 -155
-12 155 254
-255 -12
-255 25
12 -25 255
-256 -254
-256 -255
254 255 256
-257 12
-257 -164
-12 164 257
-258 -12
-258 26
12 -26 258
-259 -257
-259 -258
257 258 259
-260 12
-260 -173
-12 173 260
-261 -12
-261 27
12 -27 261
-262 -260
-262 -261
260 261 262
-263 12
-263 -182
-12 182 263
-264 -12
-264 28
12 -28 264
-265 -263
-265 -264
263 264 265
-266 12
-266 -191
-12 191 266
-267 -12
-267 29
12 -29 267
-268 -266
-268 -267
266 267 268
-269 12
-269 -200
-12 200 269
-270 -12
-270 30
12 -30 270
-271 -269
-271 -270
269 270 271
-272 12
-272 -209
-12 209 272
-273 -12
-273 31
12 -31 273
-274 -272
-274 -273
272 273 274
-275 12
-275 -218
-12 218 275
-276 1
-276 49
-1 -49 276
-277 -49
-277 50
49 -50 277
-278 -276
-278 -277
276 277 278
-279 2
-279 49
-2 -49 279
-280 -49
-280 -223
49 223 280
-281 -279
-281 -280
279 280 281
-282 3
-282 49
-3 -49 282
-283 -49
-283 -226
49 226 283
-284 -282
-284 -283
282 283 284
-285 4
-285 49
-4 -49 285
-286 -49
-286 -229
49 229 286
-287 -285
-287 -286
285 286 287
-288 5
-288 49
-5 -49 288
-289 -49
-289 -232
49 232 289
-290 -288
-290 -289
288 289 290
-291 6
-291 49
-6 -49 291
-292 -49
-292 -235
49 235 292
-293 -291
-293 -292
291 292 293
-294 7
-294 49
-7 -49 294
-295 -49
-295 -238
49 238 295
-296 -294
-296 -295
294 295 296
-297 8
-297 49
-8 -49 297
-298 -49
-298 -241
49 241 298
-299 -297
-299 -298
297 298 299
-300 9
-300 49
-9 -49 300
-301 -49
-301 -244
49 244 301
-302 -300
-302 -301
300 301 302
-303 10
-303 49
-10 -49 303
-304 -49
-304 -247
49 247 304
-305 -303
-305 -304
303 304 305
-306 11
-306 49
-11 -49 306
-307 -49
-307 -250
49 250 307
-308 -306
-308 -307
306 307 308
-309 -49
-309 -253
49 253 309
-310 -49
-310 -256
49 256 310
-311 -49
-311 -259
49 259 311
-312 -49
-312 -262
49 262 312
-313 -49
-313 -265
49 265 313
-314 -49
-314 -268
49 268 314
-315 -49
-315 -271
49 271 315
-316 -49
-316 -274
49 274 316
-317 -49
-317 275
49 -275 317
-318 -31
-318 220
31 -220 318
-319 12
-319 -318
-12 318 319
319
